5 5
7 4 3 3 2 5 5 20 4 8 5 2 6 3 18 4 2 5 8 1 12 5 3 4 2 12 4 7 1 15 5 11 3 1 3 5 8 2 6 1 3 6 2 5 15 2 12 2 1 16 5 6
8 1 4 9 5 4 10 5 16 2 11 1 2 3 10 3 1 7 5 18 2 3 5 2 14 3 7 5 13 1 9 4 12 2 1 5 3 15 4 5 18 2 12 3 13 4 8 3 2 7 4 14 3 12 1 5 12
6 5 3 20 2 13 1 15 5 14 4 18 4 2 15 1 19 3 13 4 10 5 5 4 3 17 1 17 2 14 4 5 3 2 7 4 20 1 16 3 2 16 3 14 5 5 4 1 18 5 7 3 3 2 3
4 5 1 5 5 16 2 10 4 4 3 8 1 4 10 4 4 8 2 15 3 19 1 20 4 3 18 4 16 1 10 5 18
7 3 3 4 5 12 2 3 5 4 4 1 9 2 17 3 2 5 20 1 3 12 5 3 2 1 7 4 19 2 20 5 13 3 3 18 1 20 4 14 1 5 12 3 4 17 2 15 3 11